c A SAT instance generated from a 3-CNF formula that had 15 clauses and 15 variables
p cnf 15 15
1 -5 10 0
-5 -15 -11 0
-7 -6 9 0
-4 9 -7 0
-5 3 -11 0
15 4 3 0
11 8 2 0
-6 -3 -11 0
2 12 8 0
7 11 6 0
2 13 6 0
4 -7 -12 0
15 -2 -9 0
-7 8 9 0
13 6 -2 0
%
0

85 18 100 26 57 93 72 82 98 94 8 9 81 50 38
